Geographic Exponential Decay
20 188 177 102 193 145 3 115 116 77 24 59 230 155 173 20 56 88 244 205 241
p edge 320 1204
e 0 297 9.0
e 0 111 6.0
e 0 317 1.0
e 1 193 93.0
e 1 195 2.0
e 1 25 2.0
e 2 137 5.0
e 2 25 1.0
e 2 29 4.0
e 3 264 6.0
e 3 259 61.0
e 3 112 73.0
e 3 146 52.0
e 3 233 49.0
e 3 14 73.0
e 3 285 66.0
e 3 16 1.0
e 3 35 56.0
e 3 274 27.0
e 3 122 46.0
e 3 137 35.0
e 3 132 44.0
e 3 158 34.0
e 3 223 1.0
e 3 46 47.0
e 3 145 11.0
e 3 107 37.0
e 3 255 48.0
e 3 189 82.0
e 3 314 35.0
e 3 64 13.0
e 3 236 36.0
e 3 154 62.0
e 3 114 53.0
e 3 215 92.0
e 3 38 55.0
e 3 192 85.0
e 3 40 29.0
e 3 51 72.0
e 3 126 65.0
e 3 136 98.0
e 3 238 11.0
e 3 103 78.0
e 3 243 37.0
e 3 311 97.0
e 3 213 55.0
e 4 65 5.0
e 4 155 88.0
e 4 264 2.0
e 5 236 1.0
e 5 122 3.0
e 5 170 2.0
e 6 180 21.0
e 6 301 9.0
e 6 11 8.0
e 6 280 10.0
e 6 14 16.0
e 6 199 16.0
e 6 159 11.0
e 6 83 13.0
e 6 127 6.0
e 6 258 21.0
e 7 18 9.0
e 7 102 39.0
e 7 147 1.0
e 8 21 1.0
e 8 147 2.0
e 9 36 4.0
e 9 117 9.0
e 10 219 1.0
e 10 98 1.0
e 10 238 1.0
e 11 308 9.0
e 12 124 24.0
e 12 8 1.0
e 12 252 12.0
e 12 137 4.0
e 12 253 16.0
e 12 241 70.0
e 12 204 7.0
e 12 315 3.0
e 12 130 2.0
e 12 171 6.0
e 13 222 11.0
e 13 84 1.0
e 15 269 13.0
e 15 46 2.0
e 15 136 12.0
e 15 12 3.0
e 15 257 9.0
e 16 281 1.0
e 17 96 3.0
e 17 230 23.0
e 17 301 2.0
e 18 162 7.0
e 18 214 7.0
e 18 317 9.0
e 18 113 6.0
e 19 302 2.0
e 19 79 1.0
e 20 277 70.0
e 20 59 66.0
e 20 140 11.0
e 20 83 57.0
e 20 52 93.0
e 20 213 55.0
e 20 60 92.0
e 20 71 45.0
e 20 160 23.0
e 20 112 59.0
e 20 309 76.0
e 20 314 31.0
e 20 82 91.0
e 20 75 27.0
e 20 76 35.0
e 20 39 51.0
e 20 280 72.0
e 20 85 36.0
e 20 259 68.0
e 20 184 63.0
e 20 318 79.0
e 20 167 50.0
e 20 1 60.0
e 20 176 95.0
e 20 153 53.0
e 20 68 4.0
e 20 308 85.0
e 20 255 21.0
e 20 164 65.0
e 20 270 14.0
e 20 260 19.0
e 20 98 20.0
e 20 23 46.0
e 20 4 64.0
e 20 300 71.0
e 20 216 77.0
e 20 313 80.0
e 21 167 1.0
e 21 77 89.0
e 22 219 1.0
e 22 178 1.0
e 23 230 15.0
e 23 174 20.0
e 23 55 2.0
e 23 164 19.0
e 23 7 10.0
e 23 305 24.0
e 23 42 17.0
e 23 45 7.0
e 23 293 5.0
e 24 30 58.0
e 24 220 66.0
e 24 194 26.0
e 24 282 50.0
e 24 111 35.0
e 24 256 9.0
e 24 262 85.0
e 24 52 61.0
e 24 119 61.0
e 24 61 79.0
e 24 176 53.0
e 24 246 69.0
e 24 86 31.0
e 24 101 20.0
e 24 161 94.0
e 24 126 91.0
e 24 215 1.0
e 24 229 76.0
e 24 72 13.0
e 24 122 75.0
e 24 227 43.0
e 24 9 76.0
e 24 97 60.0
e 24 152 85.0
e 24 218 30.0
e 24 288 83.0
e 24 16 60.0
e 24 29 31.0
e 24 76 84.0
e 24 42 2.0
e 24 175 59.0
e 24 293 9.0
e 24 157 71.0
e 24 43 19.0
e 24 25 92.0
e 24 104 69.0
e 24 241 89.0
e 26 5 5.0
e 26 53 1.0
e 27 150 1.0
e 27 234 11.0
e 27 56 59.0
e 28 305 2.0
e 28 135 3.0
e 28 39 4.0
e 28 9 2.0
e 28 295 8.0
e 29 84 4.0
e 30 159 1.0
e 31 149 1.0
e 31 28 1.0
e 31 150 1.0
e 32 304 4.0
e 32 96 4.0
e 32 223 4.0
e 33 232 5.0
e 33 261 3.0
e 33 69 6.0
e 34 72 5.0
e 34 98 1.0
e 34 242 6.0
e 35 73 1.0
e 35 150 1.0
e 36 226 4.0
e 36 30 1.0
e 37 247 1.0
e 37 298 2.0
e 38 158 7.0
e 38 76 6.0
e 38 301 1.0
e 38 148 11.0
e 39 186 10.0
e 39 275 12.0
e 39 155 83.0
e 40 239 2.0
e 41 119 29.0
e 41 89 13.0
e 41 198 1.0
e 42 206 9.0
e 42 117 9.0
e 42 175 7.0
e 43 294 1.0
e 44 223 1.0
e 44 263 2.0
e 45 254 1.0
e 46 298 2.0
e 47 205 41.0
e 47 11 1.0
e 47 175 2.0
e 48 93 1.0
e 48 277 1.0
e 49 239 5.0
e 49 147 2.0
e 50 74 1.0
e 50 39 4.0
e 51 205 20.0
e 53 217 1.0
e 54 286 8.0
e 54 155 38.0
e 55 116 2.0
e 55 303 4.0
e 56 248 57.0
e 56 14 56.0
e 56 154 87.0
e 56 281 58.0
e 56 67 34.0
e 56 292 43.0
e 56 62 10.0
e 56 200 5.0
e 56 117 73.0
e 56 310 93.0
e 56 136 78.0
e 56 302 97.0
e 56 63 29.0
e 56 174 95.0
e 56 66 17.0
e 56 90 8.0
e 56 163 58.0
e 56 68 93.0
e 56 307 37.0
e 56 57 37.0
e 56 164 28.0
e 56 21 93.0
e 56 269 36.0
e 56 77 15.0
e 56 103 53.0
e 56 294 49.0
e 56 96 26.0
e 56 206 65.0
e 56 216 81.0
e 56 314 76.0
e 56 46 45.0
e 56 158 72.0
e 56 231 43.0
e 56 23 64.0
e 56 107 76.0
e 56 104 36.0
e 57 78 5.0
e 57 179 3.0
e 58 217 9.0
e 58 317 18.0
e 58 57 7.0
e 58 81 22.0
e 58 159 15.0
e 58 102 5.0
e 58 87 19.0
e 58 289 7.0
e 58 100 14.0
e 58 115 18.0
e 59 21 14.0
e 59 5 90.0
e 59 47 19.0
e 59 39 30.0
e 59 303 65.0
e 59 219 60.0
e 59 170 100.0
e 59 112 60.0
e 59 249 99.0
e 59 228 35.0
e 59 193 100.0
e 59 41 84.0
e 59 24 30.0
e 59 147 16.0
e 59 160 97.0
e 59 137 89.0
e 59 84 10.0
e 59 300 41.0
e 59 80 87.0
e 59 201 41.0
e 59 162 93.0
e 59 116 16.0
e 59 61 74.0
e 59 40 20.0
e 59 63 81.0
e 59 138 75.0
e 59 244 75.0
e 59 250 52.0
e 59 104 43.0
e 59 161 12.0
e 59 72 58.0
e 59 205 62.0
e 59 100 50.0
e 59 253 23.0
e 59 113 47.0
e 59 304 87.0
e 60 181 18.0
e 60 201 1.0
e 60 173 22.0
e 60 5 6.0
e 61 109 4.0
e 62 26 5.0
e 62 151 1.0
e 64 216 5.0
e 65 106 2.0
e 65 87 1.0
e 66 273 1.0
e 66 31 3.0
e 67 111 1.0
e 68 266 9.0
e 68 105 3.0
e 68 269 11.0
e 69 205 22.0
e 69 2 4.0
e 69 64 6.0
e 69 127 9.0
e 70 269 11.0
e 70 268 6.0
e 71 257 1.0
e 73 210 1.0
e 74 102 83.0
e 75 40 5.0
e 75 173 98.0
e 76 255 7.0
e 76 19 11.0
e 77 27 38.0
e 77 35 49.0
e 77 199 39.0
e 77 134 33.0
e 77 165 68.0
e 77 226 49.0
e 77 256 43.0
e 77 97 16.0
e 77 149 40.0
e 77 135 38.0
e 77 261 20.0
e 77 271 55.0
e 77 214 42.0
e 77 198 77.0
e 77 108 71.0
e 77 203 62.0
e 77 211 99.0
e 77 24 59.0
e 77 150 84.0
e 77 260 8.0
e 77 190 42.0
e 77 306 6.0
e 77 301 12.0
e 77 89 5.0
e 77 62 62.0
e 77 105 47.0
e 77 118 15.0
e 77 268 53.0
e 77 166 47.0
e 77 235 53.0
e 77 215 16.0
e 77 80 53.0
e 77 170 4.0
e 77 187 81.0
e 77 313 71.0
e 78 194 6.0
e 78 11 1.0
e 79 12 9.0
e 80 272 24.0
e 80 184 16.0
e 80 129 6.0
e 80 205 46.0
e 80 130 23.0
e 80 7 1.0
e 80 25 1.0
e 80 196 24.0
e 81 165 2.0
e 82 198 5.0
e 82 146 4.0
e 85 37 5.0
e 85 165 2.0
e 85 99 5.0
e 85 237 3.0
e 85 310 4.0
e 85 261 17.0
e 85 9 2.0
e 85 151 9.0
e 85 226 16.0
e 86 242 3.0
e 86 156 6.0
e 88 176 66.0
e 88 265 34.0
e 88 11 33.0
e 88 251 67.0
e 88 66 68.0
e 88 133 69.0
e 88 266 18.0
e 88 78 65.0
e 88 243 97.0
e 88 264 46.0
e 88 269 4.0
e 88 58 24.0
e 88 87 84.0
e 88 223 32.0
e 88 312 98.0
e 88 256 68.0
e 88 100 6.0
e 88 214 82.0
e 88 29 32.0
e 88 50 38.0
e 88 160 38.0
e 88 8 62.0
e 88 91 45.0
e 88 298 51.0
e 88 89 89.0
e 88 115 25.0
e 88 271 92.0
e 88 193 35.0
e 88 205 89.0
e 88 101 34.0
e 88 163 14.0
e 88 90 31.0
e 88 313 84.0
e 88 304 52.0
e 88 127 72.0
e 88 26 21.0
e 88 291 88.0
e 89 139 24.0
e 89 301 4.0
e 89 143 1.0
e 89 110 25.0
e 89 82 5.0
e 89 158 19.0
e 89 214 1.0
e 91 233 5.0
e 92 128 2.0
e 92 155 36.0
e 93 149 1.0
e 94 201 2.0
e 94 25 5.0
e 95 264 1.0
e 95 185 22.0
e 99 73 3.0
e 99 316 5.0
e 102 241 22.0
e 102 57 21.0
e 102 86 53.0
e 102 92 72.0
e 102 310 62.0
e 102 12 37.0
e 102 108 95.0
e 102 213 62.0
e 102 18 19.0
e 102 143 75.0
e 102 270 70.0
e 102 93 88.0
e 102 257 40.0
e 102 99 64.0
e 102 170 21.0
e 102 317 64.0
e 102 182 47.0
e 102 145 45.0
e 102 34 55.0
e 102 297 34.0
e 102 269 69.0
e 102 308 55.0
e 102 135 51.0
e 102 65 4.0
e 102 114 21.0
e 102 75 35.0
e 102 316 33.0
e 102 311 91.0
e 102 77 65.0
e 102 46 12.0
e 102 49 78.0
e 102 110 29.0
e 102 225 43.0
e 102 62 55.0
e 106 30 1.0
e 107 307 13.0
e 108 51 1.0
e 109 217 1.0
e 109 208 1.0
e 112 222 14.0
e 112 297 22.0
e 113 128 2.0
e 113 37 5.0
e 113 159 4.0
e 114 1 1.0
e 115 126 15.0
e 115 110 21.0
e 115 85 63.0
e 115 99 92.0
e 115 96 17.0
e 115 1 25.0
e 115 314 30.0
e 115 108 20.0
e 115 60 80.0
e 115 112 70.0
e 115 87 95.0
e 115 117 63.0
e 115 14 93.0
e 115 154 36.0
e 115 46 55.0
e 115 210 19.0
e 115 247 32.0
e 115 102 44.0
e 115 309 31.0
e 115 133 47.0
e 115 76 78.0
e 115 9 75.0
e 115 231 9.0
e 115 283 86.0
e 115 195 89.0
e 115 77 58.0
e 115 150 8.0
e 115 164 96.0
e 115 219 41.0
e 115 92 15.0
e 115 288 81.0
e 115 287 37.0
e 115 28 26.0
e 115 11 14.0
e 115 8 99.0
e 116 32 35.0
e 116 221 52.0
e 116 15 43.0
e 116 133 64.0
e 116 228 23.0
e 116 65 60.0
e 116 261 71.0
e 116 79 58.0
e 116 16 44.0
e 116 33 81.0
e 116 201 69.0
e 116 258 10.0
e 116 175 78.0
e 116 153 71.0
e 116 130 63.0
e 116 241 18.0
e 116 34 46.0
e 116 60 6.0
e 116 102 97.0
e 116 216 29.0
e 116 52 62.0
e 116 4 99.0
e 116 286 74.0
e 116 29 93.0
e 116 113 41.0
e 116 131 65.0
e 116 292 16.0
e 116 149 62.0
e 116 154 35.0
e 116 23 83.0
e 116 5 63.0
e 116 162 95.0
e 116 283 3.0
e 116 147 3.0
e 116 236 42.0
e 117 316 1.0
e 118 127 9.0
e 118 148 3.0
e 119 126 39.0
e 119 243 40.0
e 119 311 39.0
e 119 11 45.0
e 119 274 28.0
e 119 159 13.0
e 119 245 8.0
e 119 16 10.0
e 119 213 37.0
e 119 136 39.0
e 119 295 16.0
e 119 81 24.0
e 119 239 43.0
e 119 236 29.0
e 119 138 26.0
e 119 234 1.0
e 119 10 40.0
e 120 12 20.0
e 120 253 5.0
e 120 121 4.0
e 120 37 3.0
e 120 64 3.0
e 121 84 2.0
e 123 258 26.0
e 123 145 80.0
e 123 11 5.0
e 123 246 13.0
e 123 265 33.0
e 123 301 28.0
e 123 237 4.0
e 123 201 38.0
e 123 194 18.0
e 123 250 6.0
e 123 213 30.0
e 123 85 38.0
e 123 251 43.0
e 123 176 9.0
e 123 177 15.0
e 123 232 49.0
e 123 25 26.0
e 123 167 27.0
e 123 1 14.0
e 124 33 2.0
e 125 24 95.0
e 125 201 2.0
e 125 305 4.0
e 127 132 9.0
e 129 76 11.0
e 129 225 4.0
e 130 85 14.0
e 130 160 19.0
e 130 13 14.0
e 130 309 2.0
e 130 17 22.0
e 130 185 3.0
e 130 135 12.0
e 131 84 2.0
e 131 9 4.0
e 134 64 1.0
e 139 198 1.0
e 140 41 1.0
e 141 107 4.0
e 141 161 3.0
e 141 215 8.0
e 142 232 1.0
e 142 301 3.0
e 142 184 3.0
e 143 20 85.0
e 143 279 23.0
e 143 123 30.0
e 143 66 8.0
e 143 305 19.0
e 143 236 11.0
e 143 90 12.0
e 143 75 6.0
e 144 6 15.0
e 144 228 1.0
e 144 55 2.0
e 145 23 79.0
e 145 117 40.0
e 145 178 13.0
e 145 67 17.0
e 145 124 80.0
e 145 252 84.0
e 145 179 50.0
e 145 163 57.0
e 145 128 39.0
e 145 20 58.0
e 145 261 35.0
e 145 278 58.0
e 145 185 21.0
e 145 296 89.0
e 145 224 70.0
e 145 27 52.0
e 145 118 88.0
e 145 130 61.0
e 145 146 36.0
e 145 235 74.0
e 145 6 9.0
e 145 180 73.0
e 145 66 71.0
e 145 18 89.0
e 145 7 89.0
e 145 175 28.0
e 145 255 91.0
e 145 4 17.0
e 145 125 8.0
e 145 54 36.0
e 145 150 71.0
e 145 202 80.0
e 145 194 38.0
e 145 45 84.0
e 152 170 1.0
e 153 256 8.0
e 153 105 10.0
e 153 9 3.0
e 155 187 69.0
e 155 24 39.0
e 155 201 88.0
e 155 55 57.0
e 155 295 18.0
e 155 128 69.0
e 155 79 90.0
e 155 26 30.0
e 155 229 59.0
e 155 18 65.0
e 155 35 61.0
e 155 52 18.0
e 155 157 59.0
e 155 3 69.0
e 155 182 67.0
e 155 37 8.0
e 155 12 80.0
e 155 297 17.0
e 155 14 89.0
e 155 28 10.0
e 155 87 27.0
e 155 19 51.0
e 155 34 5.0
e 155 72 13.0
e 155 304 23.0
e 155 1 49.0
e 155 171 86.0
e 155 241 98.0
e 155 302 68.0
e 155 233 75.0
e 155 104 64.0
e 155 210 75.0
e 155 101 92.0
e 156 244 98.0
e 162 104 1.0
e 162 215 18.0
e 163 285 1.0
e 163 307 19.0
e 166 312 1.0
e 168 125 1.0
e 168 217 2.0
e 169 87 7.0
e 169 280 3.0
e 169 200 5.0
e 169 24 11.0
e 169 212 10.0
e 171 118 1.0
e 171 176 12.0
e 171 30 10.0
e 172 310 2.0
e 172 22 10.0
e 172 56 47.0
e 172 234 1.0
e 172 81 1.0
e 173 138 23.0
e 173 128 10.0
e 173 124 67.0
e 173 191 39.0
e 173 32 55.0
e 173 78 84.0
e 173 96 39.0
e 173 25 28.0
e 173 54 6.0
e 173 318 16.0
e 173 135 83.0
e 173 42 29.0
e 173 206 77.0
e 173 15 52.0
e 173 167 75.0
e 173 36 19.0
e 173 125 89.0
e 173 63 57.0
e 173 126 84.0
e 173 205 63.0
e 173 203 11.0
e 173 12 95.0
e 173 168 88.0
e 173 3 77.0
e 173 71 72.0
e 173 270 87.0
e 173 98 5.0
e 173 145 21.0
e 173 220 89.0
e 173 204 85.0
e 173 76 35.0
e 173 190 25.0
e 173 192 65.0
e 173 285 34.0
e 173 4 68.0
e 174 227 2.0
e 177 43 69.0
e 177 209 87.0
e 177 134 20.0
e 177 162 52.0
e 177 144 9.0
e 177 27 97.0
e 177 30 38.0
e 177 204 99.0
e 177 37 26.0
e 177 292 15.0
e 177 58 84.0
e 177 48 91.0
e 177 304 66.0
e 177 226 94.0
e 177 275 77.0
e 177 81 32.0
e 177 42 27.0
e 177 206 60.0
e 177 181 25.0
e 177 307 95.0
e 177 305 78.0
e 177 313 80.0
e 177 96 71.0
e 177 100 14.0
e 177 9 24.0
e 177 138 72.0
e 177 151 83.0
e 177 242 97.0
e 177 17 13.0
e 177 15 12.0
e 177 88 24.0
e 177 255 58.0
e 177 82 79.0
e 177 99 17.0
e 177 224 24.0
e 177 264 20.0
e 178 158 2.0
e 181 23 3.0
e 181 38 45.0
e 181 85 12.0
e 181 307 44.0
e 181 201 17.0
e 181 41 35.0
e 181 221 50.0
e 181 72 47.0
e 181 140 32.0
e 181 102 30.0
e 181 267 25.0
e 181 244 4.0
e 181 312 44.0
e 181 220 30.0
e 181 187 24.0
e 181 309 18.0
e 181 28 8.0
e 183 239 5.0
e 183 92 1.0
e 185 254 9.0
e 185 64 3.0
e 185 119 26.0
e 185 102 28.0
e 185 42 18.0
e 185 126 12.0
e 185 101 12.0
e 186 54 1.0
e 186 172 7.0
e 188 259 76.0
e 188 115 76.0
e 188 144 71.0
e 188 195 31.0
e 188 236 7.0
e 188 187 88.0
e 188 258 97.0
e 188 16 30.0
e 188 196 63.0
e 188 289 55.0
e 188 24 31.0
e 188 209 31.0
e 188 46 58.0
e 188 191 19.0
e 188 54 24.0
e 188 160 76.0
e 188 310 82.0
e 188 211 73.0
e 188 36 25.0
e 188 17 39.0
e 188 103 56.0
e 188 87 40.0
e 188 302 31.0
e 188 290 29.0
e 188 241 86.0
e 188 254 2.0
e 188 309 56.0
e 188 18 10.0
e 188 233 84.0
e 188 260 63.0
e 188 37 32.0
e 188 248 18.0
e 188 156 77.0
e 188 22 46.0
e 188 291 80.0
e 188 286 87.0
e 188 212 78.0
e 189 252 7.0
e 190 203 21.0
e 190 69 7.0
e 190 29 12.0
e 190 16 20.0
e 190 25 18.0
e 190 219 13.0
e 190 214 2.0
e 190 66 20.0
e 192 110 9.0
e 192 212 5.0
e 192 105 10.0
e 193 162 89.0
e 193 177 23.0
e 193 202 81.0
e 193 317 66.0
e 193 40 50.0
e 193 290 55.0
e 193 23 30.0
e 193 178 6.0
e 193 312 91.0
e 193 126 70.0
e 193 179 49.0
e 193 24 10.0
e 193 25 59.0
e 193 279 85.0
e 193 90 53.0
e 193 107 46.0
e 193 313 38.0
e 193 73 61.0
e 193 140 20.0
e 193 86 57.0
e 193 53 67.0
e 193 82 98.0
e 193 309 26.0
e 193 180 37.0
e 193 261 64.0
e 193 64 29.0
e 193 316 98.0
e 193 310 43.0
e 193 300 9.0
e 193 109 11.0
e 193 43 45.0
e 193 203 50.0
e 193 92 86.0
e 193 259 45.0
e 196 204 22.0
e 196 23 20.0
e 196 61 9.0
e 196 199 22.0
e 196 285 7.0
e 196 180 12.0
e 196 13 11.0
e 196 70 2.0
e 197 86 3.0
e 197 309 1.0
e 200 281 11.0
e 200 260 5.0
e 200 296 1.0
e 203 199 2.0
e 204 153 11.0
e 205 17 88.0
e 205 211 92.0
e 205 268 14.0
e 205 140 78.0
e 205 3 66.0
e 205 150 59.0
e 205 78 11.0
e 205 63 22.0
e 205 181 34.0
e 205 132 96.0
e 205 12 46.0
e 205 10 100.0
e 205 135 43.0
e 205 134 74.0
e 205 141 29.0
e 205 314 77.0
e 205 136 41.0
e 205 68 73.0
e 205 11 99.0
e 205 220 30.0
e 205 193 46.0
e 205 13 40.0
e 205 197 85.0
e 205 95 5.0
e 205 167 75.0
e 205 101 76.0
e 205 129 23.0
e 205 160 47.0
e 205 207 50.0
e 205 232 57.0
e 207 14 2.0
e 208 76 8.0
e 211 303 2.0
e 211 131 9.0
e 215 113 18.0
e 215 237 5.0
e 215 142 20.0
e 215 83 16.0
e 215 36 3.0
e 218 110 8.0
e 218 225 1.0
e 218 16 7.0
e 218 208 21.0
e 218 283 25.0
e 218 168 16.0
e 218 46 7.0
e 218 138 7.0
e 218 67 17.0
e 220 245 3.0
e 221 301 2.0
e 222 10 18.0
e 222 76 3.0
e 222 101 25.0
e 222 261 15.0
e 222 288 14.0
e 222 83 22.0
e 222 154 19.0
e 222 317 11.0
e 229 107 3.0
e 230 169 49.0
e 230 196 75.0
e 230 212 73.0
e 230 173 48.0
e 230 39 91.0
e 230 253 10.0
e 230 187 6.0
e 230 1 92.0
e 230 316 4.0
e 230 194 84.0
e 230 205 67.0
e 230 28 14.0
e 230 298 33.0
e 230 108 82.0
e 230 214 84.0
e 230 241 14.0
e 230 243 10.0
e 230 249 14.0
e 230 21 69.0
e 230 69 91.0
e 230 221 2.0
e 230 174 50.0
e 230 97 70.0
e 230 0 72.0
e 230 302 51.0
e 230 244 64.0
e 230 303 6.0
e 230 213 99.0
e 230 45 7.0
e 230 83 32.0
e 230 5 44.0
e 230 260 70.0
e 230 282 43.0
e 230 112 96.0
e 230 222 74.0
e 231 317 3.0
e 234 205 25.0
e 234 227 5.0
e 238 243 2.0
e 240 181 36.0
e 240 286 3.0
e 241 108 72.0
e 241 234 65.0
e 241 148 62.0
e 241 83 8.0
e 241 209 14.0
e 241 289 53.0
e 241 295 84.0
e 241 285 29.0
e 241 18 73.0
e 241 264 70.0
e 241 272 53.0
e 241 293 18.0
e 241 37 53.0
e 241 100 60.0
e 241 77 16.0
e 241 263 9.0
e 241 142 22.0
e 241 312 61.0
e 241 300 18.0
e 241 1 46.0
e 241 208 58.0
e 241 72 75.0
e 241 52 44.0
e 241 286 77.0
e 241 216 84.0
e 241 13 88.0
e 241 78 46.0
e 241 301 30.0
e 241 224 26.0
e 241 235 27.0
e 244 233 25.0
e 244 63 90.0
e 244 240 84.0
e 244 282 6.0
e 244 211 54.0
e 244 296 35.0
e 244 194 16.0
e 244 68 54.0
e 244 157 65.0
e 244 217 47.0
e 244 206 58.0
e 244 79 84.0
e 244 212 66.0
e 244 158 26.0
e 244 30 33.0
e 244 8 65.0
e 244 261 13.0
e 244 307 31.0
e 244 117 32.0
e 244 153 13.0
e 244 67 12.0
e 244 144 44.0
e 244 100 11.0
e 244 148 44.0
e 244 314 53.0
e 244 96 30.0
e 244 150 94.0
e 244 308 85.0
e 244 309 56.0
e 244 7 96.0
e 244 268 13.0
e 244 224 72.0
e 244 198 2.0
e 249 296 2.0
e 249 252 1.0
e 249 27 9.0
e 251 125 4.0
e 252 203 7.0
e 262 232 2.0
e 266 63 5.0
e 267 38 5.0
e 267 300 19.0
e 267 188 43.0
e 267 119 1.0
e 267 263 12.0
e 267 141 21.0
e 267 128 1.0
e 267 201 19.0
e 267 257 13.0
e 269 313 19.0
e 269 216 4.0
e 269 152 19.0
e 269 245 22.0
e 271 200 5.0
e 273 142 1.0
e 273 83 7.0
e 273 74 12.0
e 273 311 18.0
e 274 139 4.0
e 276 57 1.0
e 276 309 6.0
e 276 260 5.0
e 278 163 1.0
e 278 24 99.0
e 284 92 1.0
e 284 157 1.0
e 287 284 4.0
e 287 249 16.0
e 287 158 11.0
e 287 170 20.0
e 287 197 8.0
e 287 230 96.0
e 287 209 9.0
e 287 175 20.0
e 287 160 9.0
e 294 226 5.0
e 297 288 18.0
e 297 140 6.0
e 297 221 10.0
e 297 197 20.0
e 297 223 14.0
e 297 296 2.0
e 299 248 1.0
e 299 136 2.0
e 306 214 2.0
e 306 22 1.0
e 307 118 17.0
e 307 13 2.0
e 307 53 8.0
e 307 173 47.0
e 308 195 8.0
e 311 229 20.0
e 311 63 8.0
e 311 54 6.0
e 311 287 11.0
e 311 67 7.0
e 311 28 13.0
e 315 161 1.0
e 316 250 11.0
e 316 194 16.0
e 316 311 17.0
e 316 5 8.0
e 316 290 19.0
e 318 233 5.0
e 319 36 10.0
e 319 167 4.0
e 319 25 2.0
e 319 277 8.0
e 319 37 1.0
